p cnf 60 131
-7 1 0
-7 -2 0
7 -1 2 0
-8 -4 0
-8 -7 0
8 4 7 0
-9 1 0
-9 -5 0
9 -1 5 0
-10 -4 0
-10 -9 0
10 4 9 0
-11 1 0
-11 -6 0
11 -1 6 0
-12 -4 0
-12 -11 0
12 4 11 0
-13 -3 0
-13 12 0
13 3 -12 0
-14 1 0
-14 13 0
14 -1 -13 0
-15 -6 0
-15 -14 0
15 6 14 0
-16 6 0
-16 14 0
16 -6 -14 0
-17 -15 0
-17 -16 0
17 15 16 0
-18 4 0
-18 9 0
18 -4 -9 0
-19 17 0
-19 -18 0
19 -17 18 0
-20 -10 0
-20 -19 0
20 10 19 0
-21 -3 0
-21 -20 0
21 3 20 0
-22 1 0
-22 21 0
22 -1 -21 0
-23 -5 0
-23 -22 0
23 5 22 0
-24 5 0
-24 22 0
24 -5 -22 0
-25 -23 0
-25 -24 0
25 23 24 0
-26 4 0
-26 7 0
26 -4 -7 0
-27 25 0
-27 -26 0
27 -25 26 0
-28 -8 0
-28 -27 0
28 8 27 0
-29 -3 0
-29 -28 0
29 3 28 0
-30 -10 0
-30 -18 0
30 10 18 0
-31 21 0
-31 30 0
31 -21 -30 0
-32 -17 0
-32 -31 0
32 17 31 0
-33 17 0
-33 31 0
33 -17 -31 0
-34 -32 0
-34 -33 0
34 32 33 0
-35 3 0
-35 28 0
35 -3 -28 0
-36 34 0
-36 -35 0
36 -34 35 0
-37 -29 0
-37 -36 0
37 29 36 0
-38 1 0
-38 -37 0
38 -1 37 0
39 2 38 0
40 -2 -38 0
-41 -39 0
-41 -40 0
42 -1 41 0
-43 -8 0
-43 -26 0
43 8 26 0
-44 -37 0
-44 43 0
44 37 -43 0
45 25 44 0
46 -25 -44 0
-47 -45 0
-47 -46 0
-48 -4 0
-48 47 0
49 -42 48 0
50 -4 47 0
-51 -49 0
-51 -50 0
52 29 35 0
-53 34 0
-53 -52 0
-54 -3 0
-54 53 0
55 51 54 0
56 -3 53 0
-57 -55 0
-57 -56 0
58 3 4 0
59 1 -58 0
-60 57 0
-60 -59 0
60 0
